Route #1: 1 6 37 41 18 11 17 3 39 35 44 1
Route #2: 1 30 40 19 14 1
Route #3: 1 23 25 47 26 46 48 16 24 51 1
Route #4: 1 7 8 29 27 43 15 1
Route #5: 1 38 33 42 28 32 13 9 1
Route #6: 1 12 5 49 34 20 4 36 1
Route #7: 1 22 45 21 2 10 50 31 1
cost: 1076
